NAME : cgl_114.8685.tour
COMMENT : Length = 8685
COMMENT : Found by LKH-3 [Keld Helsgaun] Thu Jun 26 21:26:50 2025
TYPE : TOUR
DIMENSION : 115
TOUR_SECTION
53
57
50
61
72
64
73
58
51
81
76
82
90
66
70
52
86
62
83
78
54
59
69
75
92
65
94
95
96
97
98
15
16
14
20
19
13
21
17
18
12
5
11
8
10
6
9
7
4
25
26
27
29
28
33
30
32
31
115
24
23
22
3
2
1
102
99
103
101
100
104
105
107
106
108
109
110
114
111
113
112
37
35
36
34
38
41
43
39
88
87
44
42
40
47
45
48
46
49
93
84
56
67
71
85
79
68
63
89
91
55
77
74
60
80
-1
EOF
